NAME : portcgen-22-11
COMMENT : portcgen N=22, seed=11
TYPE : TSP
DIMENSION : 22
EDGE_WEIGHT_TYPE : EUC_2D
NODE_COORD_SECTION
1 -375027 -1910
2 89284 -266480
3 -333987 70201
4 -182111 14293
5 174131 -158434
6 94014 -580612
7 178684 -112588
8 214670 349183
9 77917 -129764
10 -130853 -214482
11 33730 29301
12 83256 289175
13 -397663 -218240
14 376409 243326
15 38334 -19496
16 -187677 199942
17 295339 -169032
18 260831 42077
19 -147358 -166570
20 34569 376890
21 10072 -51109
22 -49050 119085
